c clasp version 2.1.1
c Reading from p41.cnf
c Solving...
s SATISFIABLE

c Models        : 1+    
c Time          : 2.150s (Solving: 0.48s 1st Model: 0.48s Unsat: 0.00s)
c CPU Time      : 2.140s
c Choices       : 14452
c Conflicts     : 1625
c Restarts      : 2      (Average: 812.50 Last: 835)

c Variables     : 237692 (Eliminated: 74565 Frozen:    0)
c Constraints   : 267621 (Binary: 65.1% Ternary: 33.5% Other:  1.4%)
c Lemmas        : 1625   (Binary:  1.0% Ternary:  2.5% Other: 96.6%)
c   Conflict    : 1625   (Average Length: 85.8) 
c   Loop        : 0      (Average Length: 0.0) 
c   Other       : 0      (Average Length: 0.0)
c   Deleted     : 0     
